mgb2-pc
1.0
        3.0860323906         0.0000000000         0.0000000000
       -1.5430161953         2.6725824472         0.0000000000
        0.0000000000         0.0000000000         3.5241787434
    B   Mg
    2    1
Direct
     0.33333333         0.66666667         0.500000000
     0.66666667         0.33333333         0.500000000
     0.00000000         0.00000000         0.000000000
